coords = array2d(1..65, 1..2, [285, 889, 482, 341, 705, 634, 250, 631, 956, 27,
    802, 632, 583, 575, 690, 487, 577, 201, 228, 596, 480, 843, 686,
    129, 678, 280, 262, 450, 500, 643, 881, 543, 489, 823, 75, 108,
    42, 471, 830, 119, 980, 559, 603, 195, 926, 486, 712, 513, 336,
    81, 762, 108, 806, 174, 939, 700, 116, 596, 739, 221, 560, 640,
    425, 572, 836, 933, 253, 932, 768, 234, 792, 22, 209, 559, 22,
    660, 320, 112, 752, 619, 919, 558, 218, 412, 941, 442, 168, 170,
    313, 515, 669, 181, 315, 66, 960, 173, 136, 866, 543, 507, 43,
    813, 587, 169, 625, 306, 605, 914, 24, 446, 478, 615, 284, 907,
    460, 927, 100, 906, 98, 140, 851, 874, 587, 830, 254, 22, 349,
    862, 247, 469]);

n = 65;

